54 45 46 48 53 41 57 52 52 54 51 45 48 47 52 57 50 52 57 52 55 48 51 52 57 46 58 50 49 52 52 51 43 52 53 45 47 58 49 55 58 52 51 52 48 43 61 54 49 46 59 45 49 57 45 55 48 41 50 49 54 47 59 46 53 47 44 50 56 52 50 41 43 53 48 51 48 44 48 52 56 57 50 40 47 50 53 42 48 50 48 47 44 51 56 51 50 52 47 60 